qe/outputs/qe/qe_queries_cbrdelay/T=5,eliminate=[I_0,I_1,I_2,I_3,I_4,L_2,L_3,L_4,B].smt2
; benchmark generated from python API
(set-info :status unknown)
(declare-fun S_1 () Real)
(declare-fun S_3 () Real)
(declare-fun C () Real)
(declare-fun S_2 () Real)
(declare-fun L_1 () Real)
(declare-fun A_1 () Real)
(declare-fun A_0 () Real)
(declare-fun L_0 () Real)
(declare-fun S_0 () Real)
(declare-fun A_2 () Real)
(declare-fun S_4 () Real)
(declare-fun A_3 () Real)
(declare-fun A_4 () Real)
(assert
 (let (($x34 (>= L_0 0.0)))
 (let (($x675 (>= C 5.0)))
 (let (($x10006 (<= (+ (* 2.0 C) (* (- 1.0) A_2) A_3 (* (- 1.0) S_4) S_0) (- 5.0))))
 (let ((?x362 (* (- 1.0) S_4)))
 (let ((?x350 (* (- 1.0) A_2)))
 (let ((?x511 (* (- 1.0) L_0)))
 (let (($x9812 (<= (+ ?x511 (* 2.0 C) A_1 ?x362) 0.0)))
 (let (($x9354 (<= (+ (* 3.0 C) ?x362 S_0) 0.0)))
 (let (($x2883 (<= (+ A_3 (* (- 1.0) L_1) ?x362) 0.0)))
 (let (($x301 (<= (+ (* (- 1.0) C) A_3 ?x350) 0.0)))
 (let (($x277 (not $x301)))
 (let (($x12772 (or $x277 $x2883 $x9354 $x9812 (<= (+ ?x511 C ?x350 A_1 A_3 ?x362) (- 5.0)) $x10006)))
 (let (($x9374 (<= (+ C ?x350 A_1 A_3 (* (- 1.0) L_1) ?x362) 0.0)))
 (let (($x9184 (<= (+ (* 2.0 C) ?x362 S_1) 0.0)))
 (let ((?x450 (* (- 1.0) L_1)))
 (let ((?x456 (+ L_0 ?x450)))
 (let (($x1818 (<= 0.0 ?x456)))
 (let (($x1816 (not $x1818)))
 (let (($x10010 (or $x1816 $x2883 $x9184 (<= (+ ?x511 A_2 C ?x362) 0.0) (<= (+ C ?x350 A_3 ?x362 S_1) (- 5.0)))))
 (let (($x9274 (<= (+ C ?x362 S_2) 0.0)))
 (let (($x293 (<= (+ (* (- 1.0) C) A_2 (* (- 1.0) A_1)) 0.0)))
 (let (($x9349 (<= (+ (* 2.0 C) (* (- 1.0) S_3) S_0) 0.0)))
 (let (($x9824 (or (<= (+ ?x511 A_2 (* (- 1.0) S_3)) 0.0) $x1816 $x9349 (<= (+ ?x511 C A_1 (* (- 1.0) S_3)) 0.0))))
 (let (($x8899 (<= (+ C (* (- 1.0) S_2) S_0) 0.0)))
 (let ((?x4955 (* 2.0 L_1)))
 (let ((?x354 (* (- 1.0) A_1)))
 (let ((?x342 (* (- 1.0) A_4)))
 (let ((?x404 (* (- 1.0) C)))
 (let (($x10853 (or $x1818 (<= (+ ?x404 ?x350 A_3 ?x342 ?x354 ?x4955 S_4 S_1) 0.0))))
 (let (($x2437 (<= (+ A_2 ?x450 (* (- 1.0) S_3)) 0.0)))
 (let (($x10862 (or $x1818 $x2437 (not (<= (+ A_2 ?x450 (* (- 2.0) C) (* (- 1.0) S_0)) 0.0)))))
 (let (($x9569 (<= (+ A_2 ?x450 (* (- 2.0) C) (* (- 1.0) S_0)) 0.0)))
 (let (($x12556 (or $x1818 (<= (+ (* (- 2.0) C) ?x354 ?x342 A_3 L_1 S_4) 0.0))))
 (let (($x9385 (<= (+ (* (- 2.0) C) A_2 ?x354 (* (- 1.0) A_3) L_1 S_4) 0.0)))
 (let (($x329 (or $x1818 (<= (+ ?x404 A_2 ?x354 (* (- 1.0) A_3) L_1 S_3) 0.0))))
 (let (($x96 (>= S_1 S_0)))
 (let (($x99 (>= S_2 S_1)))
 (let (($x102 (>= S_3 S_2)))
 (let (($x105 (>= S_4 S_3)))
 (let (($x107 (>= A_1 A_0)))
 (let (($x108 (>= A_2 A_1)))
 (let (($x109 (>= A_3 A_2)))
 (let (($x110 (>= A_4 A_3)))
 (and $x110 $x109 $x108 $x107 $x105 $x102 $x99 $x96 (<= (+ L_0 ?x342 S_4) 0.0) (<= (+ L_0 ?x350 ?x404 S_3) 0.0) (or (= L_0 L_1) $x1816) (or $x1818 $x8899) (or $x1818 (<= (+ ?x354 L_1 S_1) (- 5.0))) (<= (+ L_0 ?x354 S_1) 0.0) (<= (+ ?x404 L_0 (* (- 1.0) A_0) S_1) 0.0) (or $x293 (<= (+ C (* (- 1.0) S_3) S_1) 0.0)) (or $x2437 (<= (+ C (* (- 1.0) S_3) S_1) 0.0)) (or $x1818 (<= (+ (* (- 3.0) C) ?x354 L_1 S_4) (- 5.0))) (<= (+ (* (- 5.0) C) S_4 (* (- 1.0) S_0)) 0.0) (or $x1818 (<= (+ C ?x354 L_1 S_0) (- 5.0))) (or $x293 $x1818 $x9349) (or $x293 $x9274 $x9374) (or $x293 $x1818 $x9354 $x9374) $x329 (or $x1818 $x9385) (or $x293 $x9184 $x9374) $x12556 (or $x1818 (<= (+ ?x404 A_2 ?x354 ?x342 L_1 S_4) 0.0)) (<= (+ L_0 (* (- 3.0) C) ?x354 S_4) 0.0) (or $x1818 (<= (+ ?x404 ?x354 L_1 S_2) (- 5.0))) (<= (+ L_0 ?x404 ?x354 S_2) 0.0) (<= (+ (* (- 3.0) C) S_2 (* (- 1.0) S_0)) 0.0) (<= (+ (* (- 1.0) A_3) L_1 S_3) 0.0) (or $x1818 $x9349 $x9569) $x10862 (or $x301 $x1818 (<= (+ A_2 ?x450 C ?x362) 0.0) $x9354) (or $x1818 (<= (+ (* (- 2.0) C) ?x354 L_1 S_3) (- 5.0))) (or $x1818 (<= (+ ?x350 A_3 ?x342 ?x354 ?x4955 S_4 S_0) 0.0)) (<= (+ L_0 (* (- 4.0) C) (* (- 1.0) A_0) S_4) 0.0) (or $x301 $x9184 (<= (+ A_2 ?x450 C ?x362) 0.0)) (<= (+ ?x350 L_1 ?x404 S_3) 0.0) (<= (+ ?x350 L_1 (* (- 2.0) C) S_4) 0.0) (or (not $x293) $x2883 $x9274) $x10853 (<= (+ ?x342 L_1 S_4) 0.0) (or (not $x293) $x2883 $x9184 (<= (+ A_2 ?x450 C ?x362) 0.0)) (or (not $x293) $x2883 (<= (+ A_2 ?x450 C ?x362) 0.0) $x9354) (<= (+ (* (- 2.0) C) S_2 (* (- 1.0) S_1)) 0.0) (or (<= (+ ?x511 A_1 (* (- 1.0) S_2)) 0.0) $x8899) $x9824 (or $x293 $x301 $x9354 $x9812) (or $x2883 $x9274 (<= (+ ?x350 A_3 ?x362 S_2) (- 5.0))) (<= (+ (* (- 1.0) A_3) L_1 ?x404 S_4) 0.0) $x10010 (or $x277 $x2883 $x9354 $x9374) $x12772 $x675 $x34 (<= (+ L_0 (* (- 1.0) A_0) S_0) 0.0) (<= (+ (* (- 3.0) C) S_4 (* (- 1.0) S_2)) 0.0) (<= (+ (* (- 4.0) C) S_4 (* (- 1.0) S_1)) 0.0) (<= (+ (* (- 2.0) C) S_1 (* (- 1.0) S_0)) 0.0) (<= (+ (* (- 2.0) C) S_4 (* (- 1.0) S_3)) 0.0) (<= (+ ?x350 L_1 S_2) 0.0) (<= (+ (* (- 2.0) C) L_0 (* (- 1.0) A_0) S_2) 0.0) (<= (+ (* (- 4.0) C) S_3 (* (- 1.0) S_0)) 0.0) (<= (+ (* (- 3.0) C) L_0 (* (- 1.0) A_0) S_3) 0.0) (<= (+ (* (- 2.0) C) ?x354 L_1 S_3) 0.0) (<= (+ (* (- 2.0) C) S_3 (* (- 1.0) S_2)) 0.0) (<= (+ (* (- 3.0) C) S_3 (* (- 1.0) S_1)) 0.0))))))))))))))))))))))))))))))))))))))))))))))
(check-sat)
